p cnf 2843 2579
c ind 1013 1014 1015 1016 1017 1018 1019 1020 1021 1022 0
c ind 1023 1024 1025 1026 1027 1028 1029 1030 1031 1032 0
c ind 1033 1034 1035 1036 1037 1038 1039 1040 1288 1289 0
c ind 1290 1291 1292 1293 1294 1295 1296 1297 1298 1299 0
c ind 1300 1301 1302 1303 1304 1305 1306 1307 1308 1309 0
c ind 1310 1311 1312 1313 1314 1315 1316 1317 1318 1319 0
c ind 1320 1321 1322 1323 1324 1325 1326 1327 1328 1329 0
c ind 1330 1331 1332 1333 1334 1335 1336 1337 1338 1339 0
c ind 1340 1341 1342 1343 1344 880 881 882 883 884 0
c ind 885 886 887 888 889 890 891 892 893 894 0
c ind 895 896 897 898 899 900 901 902 903 904 0
c ind 905 906 907 908 909 910 911 912 913 914 0
c ind 915 916 917 918 919 920 921 922 923 924 0
c ind 925 926 927 928 929 930 931 932 933 934 0
c ind 935 936 937 938 939 940 941 942 943 944 0
c ind 945 946 947 1090 1091 1092 1093 1094 1095 1096 0
c ind 1097 1098 1099 1100 1101 1102 948 1103 1104 1184 0
c ind 1185 1158 1159 1160 1161 1162 1163 1164 1165 1166 0
c ind 1167 1168 1169 1170 1171 1172 1173 1174 1175 1176 0
c ind 1105 1106 1177 1178 1107 1108 1179 1180 1041 1042 0
c ind 1043 1044 1045 1046 1047 1048 1049 1050 1051 1052 0
c ind 949 1053 1054 1109 1055 1110 1056 1057 1111 1058 0
c ind 1112 1059 1060 1061 1062 1063 824 825 826 827 0
c ind 828 829 1113 830 831 832 833 834 1114 835 0
c ind 836 1115 837 838 1116 839 1117 840 841 842 0
c ind 843 844 845 846 1458 1459 1460 1461 1462 1463 0
c ind 1118 1464 950 1465 1466 1119 1467 1120 1468 1469 0
c ind 1470 1121 1471 1122 1472 1473 1474 1475 1476 1477 0
c ind 1478 1479 1480 1064 1065 1066 1067 1068 1069 1070 0
c ind 1071 1072 1123 1073 1124 1074 1075 1076 1125 1126 0
c ind 1077 1078 1079 1080 1081 1082 1083 1084 1085 1086 0
c ind 1127 1087 1181 1088 1089 847 848 849 850 1128 0
c ind 851 1129 852 853 1130 1131 854 855 856 857 0
c ind 858 859 860 861 1132 862 1133 863 864 865 0
c ind 1134 866 867 868 869 870 871 872 873 874 0
c ind 875 876 877 878 879 1135 1627 1628 1629 1630 0
c ind 1136 1631 1137 1632 1138 1633 1139 1634 1635 1636 0
c ind 1637 1638 1639 1640 1641 1642 1643 1644 1645 1646 0
c ind 1647 1648 1649 1650 1651 1652 1653 1654 1655 1656 0
c ind 1657 1658 1659 1660 1661 1662 1182 1663 1664 1665 0
c ind 951 952 953 954 955 956 957 958 959 960 0
c ind 961 962 963 964 965 966 967 968 969 970 0
c ind 971 972 973 974 975 976 977 978 979 980 0
c ind 981 982 983 984 985 986 1183 987 988 989 0
c ind 990 991 992 993 994 995 1413 1414 1415 1416 0
c ind 1417 1418 1419 1420 1421 1422 1423 1424 1425 1426 0
c ind 1427 1428 1429 1430 1431 1432 1433 1434 1435 1436 0
c ind 1437 1438 1439 1440 1441 1442 1443 1444 1445 1446 0
c ind 1447 1448 1449 1450 1451 1452 1453 1454 1455 1456 0
c ind 1457 996 997 998 999 1000 1001 1002 1003 1004 0
c ind 1005 1006 1007 1008 1009 1010 1011 1012 0
672 -673 786 0
672 -673 700 0
-672 673 0
-700 -786 -672 0
673 -674 -688 -699 0
-673 674 0
-673 688 0
-673 699 0
674 -675 684 0
-674 675 0
-674 -684 0
675 676 680 -828 -1467 0
-675 1467 0
-675 -680 0
-675 828 0
-675 -676 0
677 1468 676 1469 1470 0
-676 -677 0
-676 -1470 0
-676 -1468 0
-676 -1469 0
677 678 -1473 0
677 678 679 -1474 0
-677 -678 0
-677 -679 1473 0
-677 1473 1474 0
678 1471 -1472 0
-678 -1471 0
-678 1472 0
679 1479 1480 0
679 1070 1071 1479 0
-679 -1479 0
-679 -1071 -1480 0
-679 -1070 -1480 0
681 829 680 830 831 0
-680 -681 0
-680 -831 0
-680 -829 0
-680 -830 0
681 682 -834 0
681 682 683 -835 0
-681 -682 0
-681 -683 834 0
-681 834 835 0
682 832 -833 0
-682 -832 0
-682 833 0
683 840 841 0
683 840 1459 1460 0
-683 -840 0
-683 -841 -1459 0
-683 -841 -1460 0
-685 -1042 684 0
-687 -1042 684 0
-686 -1042 684 0
-684 1042 0
-684 685 686 687 0
685 -1048 1049 1050 0
-685 1048 0
-685 -1050 0
-685 -1049 0
686 1048 1051 1052 0
-686 -1048 0
-686 -1052 0
-686 -1051 0
687 -1043 1044 1045 0
-687 1043 0
-687 -1045 0
-687 -1044 0
688 -691 1664 0
688 -691 956 0
688 689 -691 0
-688 691 0
-689 -956 -688 -1664 0
689 -690 -957 958 0
-689 957 0
-689 -958 0
-689 690 0
690 960 -961 -962 963 0
-690 -960 0
-690 -963 0
-690 962 0
-690 961 0
691 692 -695 698 0
691 692 -695 948 0
-691 695 0
-691 -692 0
-698 -948 -691 0
-693 -694 692 -1653 0
-693 -694 692 -1654 0
-692 694 0
-692 693 0
-692 1653 1654 0
693 1656 1657 1658 1659 0
-693 -1659 0
-693 -1658 0
-693 -1656 0
-693 -1657 0
694 -1650 -1651 -1652 1655 0
-694 1652 0
-694 -1655 0
-694 1650 0
-694 1651 0
695 -696 -697 -985 -998 0
-695 697 0
-695 985 0
-695 696 0
-695 998 0
696 -1027 -1303 -1332 -1431 0
-696 1431 0
-696 1027 0
-696 1332 0
-696 1303 0
697 -896 -925 0
-697 896 0
-697 925 0
698 875 876 877 0
-698 -875 0
-698 -877 0
-698 -876 0
699 -1181 -1182 0
699 -950 1183 0
699 -950 -1182 0
699 -1181 1183 0
1182 -1183 -699 0
950 1181 -699 0
700 -701 -741 0
-700 701 0
-700 741 0
701 719 -730 1622 0
701 -702 719 -730 0
-701 730 0
-701 -719 0
-701 702 -1622 0
702 -703 -695 0
702 717 -695 0
695 -702 0
-702 703 -717 0
703 -704 -716 -1139 0
703 704 -705 -716 0
-703 716 0
-703 -704 1139 0
-703 704 705 0
704 980 -982 0
-704 -980 0
-704 982 0
705 -706 -1138 0
705 706 -707 0
-705 -706 1138 0
-705 706 707 0
706 952 -954 0
-706 -952 0
-706 954 0
707 708 692 715 0
707 708 692 -712 0
-692 -707 0
-707 -708 0
-707 712 -715 0
708 -710 948 -1643 0
708 709 948 1643 0
-708 -948 0
-708 710 -1643 0
-708 -709 1643 0
709 -1135 -674 0
-709 1135 0
674 -709 0
710 -711 1136 0
709 710 711 0
-710 -711 -1136 0
-709 -710 711 0
711 862 -864 0
-711 -862 0
-711 864 0
710 712 -713 0
-710 -712 0
-712 713 0
713 714 -875 0
713 714 -876 0
713 714 -877 0
-713 -714 0
-713 875 876 877 0
714 1630 -1632 0
-714 -1630 0
-714 1632 0
714 715 -948 0
715 -948 1137 0
-715 948 0
-714 -715 -1137 0
716 956 -1664 0
-716 -956 0
-716 1664 0
717 718 -1664 0
705 707 717 0
707 717 718 0
705 717 -1664 0
-707 -717 1664 0
-705 -717 -718 0
689 718 -956 -1664 0
-718 956 0
-718 1664 0
-689 -718 0
719 -720 1145 0
719 720 -1145 0
-719 -720 -1145 0
-719 720 1145 0
720 -721 -695 0
720 729 -695 0
695 -720 0
-720 721 -729 0
704 -716 721 -722 0
-704 -716 721 -1108 0
716 -721 0
704 -721 722 0
-704 -721 1108 0
-706 722 -1107 0
706 722 -723 0
-706 -722 1107 0
706 -722 723 0
723 724 692 728 0
723 724 692 -727 0
-692 -723 0
-723 -724 0
-723 727 -728 0
724 725 -948 1106 0
714 724 725 -948 0
-724 948 0
-724 -725 0
-714 -724 -1106 0
-713 725 726 0
713 -725 0
-725 -726 0
711 726 1183 0
-711 726 1105 0
674 711 726 0
-711 -726 -1105 0
711 -726 -674 -1183 0
727 -1183 -674 1643 0
711 727 -674 -1183 0
-727 1183 0
674 -727 0
-711 -727 -1643 0
728 948 1643 0
728 948 1105 0
711 728 948 0
-728 -948 0
-711 -728 -1105 -1643 0
722 729 -1664 0
718 723 729 0
722 723 729 0
718 729 -1664 0
-718 -722 -729 0
-723 -729 1664 0
730 -739 -731 0
-730 731 0
-730 739 0
731 732 -688 -736 0
731 -732 -688 -734 0
688 -731 0
-732 734 -731 0
732 736 -731 0
732 733 1083 0
732 -948 1083 0
732 1083 -1643 0
-732 -1083 0
-732 -733 948 1643 0
733 1644 1645 1646 1647 0
-733 -1647 0
-733 -1646 0
-733 -1644 0
-733 -1645 0
734 -1104 -1134 0
734 735 -1134 0
-734 1134 0
-734 -735 1104 0
735 -1096 -675 1098 0
-735 1096 0
-735 -1098 0
675 -735 0
736 738 -675 -1102 0
736 737 -675 738 0
675 -736 0
-736 -738 0
-736 -737 1102 0
737 -1096 1098 0
-737 1096 0
-737 -1098 0
-684 738 1096 0
738 1096 1133 1161 0
-738 -1096 0
-738 -1133 684 0
-738 -1161 684 0
739 -740 1585 0
739 740 -1585 0
-739 -740 -1585 0
-739 740 1585 0
-735 740 -688 0
688 -740 0
735 -740 0
741 -751 -742 -777 -1614 0
741 -751 -742 777 1614 0
-741 742 0
-741 -777 1614 0
-741 751 0
-741 777 -1614 0
742 -743 -695 0
742 750 -695 0
695 -742 0
743 -750 -742 0
704 -716 743 -744 0
-704 -716 743 -1112 0
716 -743 0
704 -743 744 0
-704 -743 1112 0
-706 744 -1111 0
706 744 -745 0
-706 -744 1111 0
706 -744 745 0
745 746 692 749 0
745 746 692 -748 0
-692 -745 0
-745 -746 0
-745 748 -749 0
746 -747 948 -1643 0
674 746 948 1643 0
-746 -948 0
-746 747 -1643 0
-746 1643 -674 0
674 711 747 0
-711 747 1109 0
711 -747 -674 0
-711 -747 -1109 0
-713 747 748 0
713 -748 0
-747 -748 0
714 749 -948 0
749 -948 1110 0
-749 948 0
-714 -749 -1110 0
744 750 -1664 0
718 745 750 0
744 745 750 0
718 750 -1664 0
-718 -744 -750 0
-745 -750 1664 0
751 752 -767 0
-751 -752 0
-751 767 0
752 -753 1605 0
752 753 -1605 0
-752 -753 -1605 0
-752 753 1605 0
753 754 -695 0
695 -753 0
-753 -754 0
754 760 -764 0
754 -758 -764 0
754 -755 -764 0
-754 764 0
-754 755 758 -760 0
755 -757 948 -1643 0
755 756 948 1643 0
-755 -948 0
-755 757 -1643 0
-755 -756 1643 0
756 -1118 -674 0
-756 1118 0
674 -756 0
-711 757 1119 0
711 756 757 0
-711 -757 -1119 0
711 -756 -757 0
758 759 -948 1120 0
714 758 759 -948 0
-758 948 0
-758 -759 0
-714 -758 -1120 0
-713 757 759 0
713 -759 0
-757 -759 0
760 1664 692 0
706 760 692 -761 0
-692 -760 0
-760 761 -1664 0
-706 -760 -1664 0
761 762 763 0
690 761 762 -1664 0
-761 -762 0
-761 -763 1664 0
-690 -761 -763 0
-704 762 956 0
-762 -956 0
704 -762 0
763 -956 -957 958 0
-763 956 0
-763 957 0
-763 -958 0
704 764 765 0
716 764 765 0
764 765 1122 0
-764 -765 0
-704 -716 -764 -1122 0
-706 765 -766 -1121 0
-765 1121 0
706 -765 0
-765 766 0
-761 766 -1664 0
-766 1664 0
761 -766 0
767 -768 -775 0
767 770 -773 -775 0
-767 775 0
768 -770 -767 0
768 773 -767 0
-706 768 -1664 0
768 -769 -1664 0
-768 1664 0
706 -768 769 0
-704 769 956 -1126 0
704 -769 0
-769 1126 0
-769 -956 0
770 -772 948 -1643 0
770 771 948 1643 0
-770 -948 0
-770 772 -1643 0
-770 -771 1643 0
771 -1182 -674 0
-771 1182 0
674 -771 0
-711 772 1123 0
711 771 772 0
-711 -772 -1123 0
711 -771 -772 0
773 774 692 0
-713 772 692 773 0
-692 -773 0
713 -773 -774 0
-772 -773 -774 0
714 774 -948 0
774 -948 1124 0
-774 948 0
-714 -774 -1124 0
775 1664 -695 0
-769 775 -695 0
775 -776 -695 0
695 -775 0
769 776 -775 -1664 0
-761 776 -1125 0
706 -761 776 0
761 -776 0
-706 -776 1125 0
777 778 -695 0
695 -777 0
-777 -778 0
760 778 -784 0
778 -779 -784 0
778 -782 -784 0
-778 784 0
-760 -778 779 782 0
779 -781 948 -1643 0
779 780 948 1643 0
-779 -948 0
-779 781 -1643 0
-779 -780 1643 0
780 -1127 -674 0
-780 1127 0
674 -780 0
-711 781 1128 0
711 780 781 0
-711 -781 -1128 0
711 -780 -781 0
782 783 -948 1129 0
714 782 783 -948 0
-782 948 0
-782 -783 0
-714 -782 -1129 0
-713 781 783 0
713 -783 0
-781 -783 0
704 784 785 0
716 784 785 0
784 785 1131 0
-784 -785 0
-704 -716 -784 -1131 0
-706 -766 785 -1130 0
-785 1130 0
706 -785 0
766 -785 0
786 -787 797 -1600 0
786 787 797 1600 0
-786 -797 0
-786 787 -1600 0
-786 -787 1600 0
787 -788 -695 0
787 796 -695 0
695 -787 0
-787 788 -796 0
704 -716 788 -789 0
-704 -716 788 -1117 0
716 -788 0
704 -788 789 0
-704 -788 1117 0
-706 789 -1116 0
706 789 -790 0
-706 -789 1116 0
706 -789 790 0
790 791 692 795 0
790 791 692 -794 0
-692 -790 0
-790 -791 0
-790 794 -795 0
791 -793 948 -1643 0
791 792 948 1643 0
-791 -948 0
-791 793 -1643 0
-791 -792 1643 0
792 -1113 -674 0
-792 1113 0
674 -792 0
-711 793 1114 0
711 792 793 0
-711 -793 -1114 0
711 -792 -793 0
-713 793 794 0
713 -794 0
-793 -794 0
714 795 -948 0
795 -948 1115 0
-795 948 0
-714 -795 -1115 0
789 796 -1664 0
718 790 796 0
789 790 796 0
718 796 -1664 0
-718 -789 -796 0
-790 -796 1664 0
-702 797 1622 0
-797 -1622 0
702 -797 0
-802 -673 798 0
803 -673 798 0
799 -673 798 0
673 -798 0
-798 -799 802 -803 0
-787 799 -800 -2442 0
787 799 -800 2442 0
-799 800 0
787 -2442 -799 0
-787 2442 -799 0
800 -731 -801 0
731 -800 0
-800 801 0
801 -767 -742 0
742 -801 0
767 -801 0
-702 2464 802 0
702 -2464 802 0
-702 -802 -2464 0
702 -802 2464 0
720 803 804 -805 1987 0
-720 803 804 -805 -1987 0
-803 -804 0
-720 1987 -803 0
-803 805 0
720 -1987 -803 0
-753 2447 804 0
753 -2447 804 0
-753 -804 -2447 0
753 -804 2447 0
-740 -777 805 2427 -2456 0
-740 777 805 2427 2456 0
740 -777 805 -2427 -2456 0
740 777 805 -2427 2456 0
-740 -2427 -805 0
740 2427 -805 0
-777 2456 -805 0
777 -2456 -805 0
-787 806 -673 0
700 806 -673 0
-797 806 -673 0
673 -806 0
-700 787 797 -806 0
807 808 -673 0
751 807 -673 0
778 807 -673 0
673 -807 0
-751 -778 -807 -808 0
808 -809 -742 0
742 -808 0
-808 809 0
-701 797 809 0
701 -809 0
-797 -809 0
808 810 -673 0
754 810 -673 0
767 810 -673 0
673 -810 0
-754 -808 -767 -810 0
-702 811 -673 0
811 812 -673 0
673 -811 0
702 -811 -812 0
719 812 -813 0
-719 -812 0
-812 813 0
-739 813 -800 0
739 -813 0
800 -813 0
-720 814 -673 0
813 814 -673 0
673 -814 0
720 -813 -814 0
800 815 -673 0
740 815 -673 0
673 -815 0
-740 -815 -800 0
800 816 -673 0
673 -816 0
-800 -816 0
809 817 -673 0
741 817 -673 0
787 817 -673 0
673 -817 0
-741 -787 -809 -817 0
818 819 -673 0
801 818 -673 0
809 818 -673 0
673 -818 0
-809 -818 -801 -819 0
752 -777 819 0
-752 -819 0
777 -819 0
-754 820 -673 0
809 820 -673 0
801 820 -673 0
673 -820 0
754 -809 -801 -820 0
812 821 -673 0
702 821 -673 0
673 -821 0
-702 -812 -821 0
813 822 -673 0
720 822 -673 0
673 -822 0
-720 -813 -822 0
-740 823 -673 0
800 823 -673 0
673 -823 0
740 -823 -800 0
1 672 0
-1 -672 0
2 672 0
-2 -672 0
3 798 0
-3 -798 0
91 -806 0
-91 806 0
92 -807 0
-92 807 0
93 -810 0
-93 810 0
94 -811 0
-94 811 0
101 -814 0
-101 814 0
117 -815 0
-117 815 0
240 -816 0
-240 816 0
425 -817 0
-425 817 0
426 -818 0
-426 818 0
427 -820 0
-427 820 0
428 -821 0
-428 821 0
435 -822 0
-435 822 0
451 -823 0
-451 823 0
574 -816 0
-574 816 0
-91 -425 2596 0
91 -2596 0
425 -2596 0
91 -1600 0
-91 1600 0
-92 -426 2597 0
92 -2597 0
426 -2597 0
92 -1614 0
-92 1614 0
-93 -427 2598 0
93 -2598 0
427 -2598 0
93 -1605 0
-93 1605 0
-94 -428 2599 0
94 -2599 0
428 -2599 0
94 -1622 0
-94 1622 0
-101 -435 2606 0
101 -2606 0
435 -2606 0
101 -1145 0
-101 1145 0
-117 -451 2622 0
117 -2622 0
451 -2622 0
117 -1585 0
-117 1585 0
-240 -574 2745 0
240 -2745 0
574 -2745 0
240 -1514 0
-240 1514 0
-1 0
-2 0
3 0
4 0
5 0
6 0
7 0
8 0
9 0
10 0
11 0
12 0
13 0
14 0
15 0
16 0
17 0
18 0
19 0
20 0
21 0
22 0
23 0
24 0
25 0
26 0
27 0
28 0
29 0
30 0
31 0
32 0
33 0
34 0
35 0
36 0
37 0
38 0
39 0
40 0
41 0
42 0
43 0
44 0
45 0
46 0
47 0
48 0
49 0
50 0
51 0
52 0
53 0
54 0
55 0
56 0
57 0
58 0
59 0
60 0
61 0
62 0
63 0
64 0
65 0
66 0
67 0
68 0
69 0
70 0
71 0
72 0
73 0
74 0
75 0
76 0
77 0
78 0
79 0
80 0
81 0
82 0
83 0
84 0
85 0
86 0
87 0
88 0
89 0
90 0
95 0
96 0
97 0
98 0
99 0
100 0
102 0
103 0
104 0
105 0
106 0
107 0
108 0
109 0
110 0
111 0
112 0
113 0
114 0
115 0
116 0
118 0
119 0
120 0
121 0
122 0
123 0
124 0
125 0
126 0
127 0
128 0
129 0
130 0
131 0
132 0
133 0
134 0
135 0
136 0
137 0
138 0
139 0
140 0
141 0
142 0
143 0
144 0
145 0
146 0
147 0
148 0
149 0
150 0
151 0
152 0
153 0
154 0
155 0
156 0
157 0
158 0
159 0
160 0
161 0
162 0
163 0
164 0
165 0
166 0
167 0
168 0
169 0
170 0
171 0
172 0
173 0
174 0
175 0
176 0
177 0
178 0
179 0
180 0
181 0
182 0
183 0
184 0
185 0
-186 0
187 0
188 0
189 0
190 0
191 0
192 0
193 0
194 0
195 0
196 0
197 0
198 0
199 0
200 0
201 0
202 0
203 0
204 0
205 0
206 0
207 0
208 0
209 0
210 0
211 0
212 0
213 0
214 0
215 0
216 0
217 0
218 0
219 0
220 0
221 0
222 0
223 0
224 0
225 0
226 0
227 0
228 0
229 0
230 0
231 0
232 0
233 0
234 0
235 0
236 0
237 0
238 0
239 0
-240 0
241 0
242 0
243 0
244 0
245 0
246 0
247 0
248 0
-249 0
250 0
251 0
252 0
253 0
254 0
255 0
256 0
257 0
258 0
259 0
260 0
261 0
262 0
263 0
264 0
265 0
266 0
267 0
268 0
269 0
270 0
271 0
272 0
273 0
274 0
275 0
276 0
-277 0
278 0
279 0
280 0
281 0
282 0
283 0
284 0
285 0
286 0
287 0
288 0
289 0
290 0
291 0
292 0
293 0
294 0
295 0
296 0
297 0
298 0
299 0
300 0
301 0
302 0
303 0
304 0
305 0
306 0
307 0
308 0
309 0
310 0
311 0
312 0
313 0
314 0
315 0
316 0
317 0
318 0
319 0
320 0
321 0
322 0
323 0
324 0
325 0
326 0
327 0
328 0
329 0
330 0
331 0
332 0
333 0
334 0
335 0
336 0
337 0
-338 0
-339 0
-340 0
-341 0
-342 0
-343 0
-344 0
-345 0
-346 0
-347 0
-348 0
-349 0
-350 0
-351 0
-352 0
-353 0
-354 0
-355 0
-356 0
-357 0
-358 0
-359 0
-360 0
-361 0
-362 0
-363 0
-364 0
-365 0
-366 0
-367 0
-368 0
-369 0
-370 0
-371 0
-372 0
-373 0
-374 0
-375 0
-376 0
-377 0
-378 0
-379 0
-380 0
-381 0
-382 0
-383 0
-384 0
-385 0
-386 0
-387 0
-388 0
-389 0
-390 0
-391 0
-392 0
-393 0
-394 0
-395 0
-396 0
-397 0
-398 0
-399 0
-400 0
-401 0
-402 0
-403 0
-404 0
-405 0
-406 0
-407 0
-408 0
-409 0
-410 0
-411 0
-412 0
-413 0
-414 0
-415 0
-416 0
-417 0
-418 0
-419 0
-420 0
-421 0
-422 0
-423 0
-424 0
-429 0
-430 0
-431 0
-432 0
-433 0
-434 0
-436 0
-437 0
-438 0
-439 0
-440 0
-441 0
-442 0
-443 0
-444 0
-445 0
-446 0
-447 0
-448 0
-449 0
-450 0
-452 0
-453 0
-454 0
-455 0
-456 0
-457 0
-458 0
-459 0
-460 0
-461 0
-462 0
-463 0
-464 0
-465 0
-466 0
-467 0
-468 0
-469 0
-470 0
-471 0
-472 0
-473 0
-474 0
-475 0
-476 0
-477 0
-478 0
-479 0
-480 0
-481 0
-482 0
-483 0
-484 0
-485 0
-486 0
-487 0
-488 0
-489 0
-490 0
-491 0
-492 0
-493 0
-494 0
-495 0
-496 0
-497 0
-498 0
-499 0
-500 0
-501 0
-502 0
-503 0
-504 0
-505 0
-506 0
-507 0
-508 0
-509 0
-510 0
-511 0
-512 0
-513 0
-514 0
-515 0
-516 0
-517 0
-518 0
-519 0
520 0
-521 0
-522 0
-523 0
-524 0
-525 0
-526 0
-527 0
-528 0
-529 0
-530 0
-531 0
-532 0
-533 0
-534 0
-535 0
-536 0
-537 0
-538 0
-539 0
-540 0
-541 0
-542 0
-543 0
-544 0
-545 0
-546 0
-547 0
-548 0
-549 0
-550 0
-551 0
-552 0
-553 0
-554 0
-555 0
-556 0
-557 0
-558 0
-559 0
-560 0
-561 0
-562 0
-563 0
-564 0
-565 0
-566 0
-567 0
-568 0
-569 0
-570 0
-571 0
-572 0
-573 0
-574 0
-575 0
-576 0
-577 0
-578 0
-579 0
-580 0
-581 0
-582 0
583 0
-584 0
-585 0
-586 0
-587 0
-588 0
-589 0
-590 0
-591 0
-592 0
-593 0
-594 0
-595 0
-596 0
-597 0
-598 0
-599 0
-600 0
-601 0
-602 0
-603 0
-604 0
-605 0
-606 0
-607 0
-608 0
-609 0
-610 0
611 0
-612 0
-613 0
-614 0
-615 0
-616 0
-617 0
-618 0
-619 0
-620 0
-621 0
-622 0
-623 0
-624 0
-625 0
-626 0
-627 0
-628 0
-629 0
-630 0
-631 0
-632 0
-633 0
-634 0
-635 0
-636 0
-637 0
-638 0
-639 0
-640 0
-641 0
-642 0
-643 0
-644 0
-645 0
-646 0
-647 0
-648 0
-649 0
-650 0
-651 0
-652 0
-653 0
-654 0
-655 0
-656 0
-657 0
-658 0
-659 0
-660 0
-661 0
-662 0
-663 0
-664 0
-665 0
-666 0
-667 0
-668 0
-669 0
-670 0
-671 0
672 0
673 0
674 0
675 0
-676 0
-680 0
-684 0
688 0
691 0
-692 0
695 0
696 0
697 0
699 0
731 0
742 0
767 0
775 0
-798 0
799 0
800 0
801 0
-802 0
803 0
-804 0
805 0
-816 0
828 0
896 0
925 0
985 0
998 0
1027 0
-1140 0
1141 0
1142 0
1143 0
1144 0
1146 0
1147 0
1148 0
1149 0
1150 0
1151 0
1152 0
1153 0
1154 0
1155 0
1156 0
1157 0
1186 0
1187 0
1188 0
1189 0
1190 0
1191 0
1192 0
1193 0
1194 0
1195 0
1196 0
1197 0
1198 0
1199 0
1200 0
1201 0
1202 0
1203 0
1204 0
1205 0
1206 0
1207 0
1208 0
1209 0
1210 0
1211 0
1212 0
1213 0
1214 0
1215 0
1216 0
1217 0
1218 0
1219 0
1220 0
1221 0
1222 0
1223 0
1224 0
1225 0
1226 0
1227 0
1228 0
1229 0
1230 0
1231 0
1232 0
1233 0
1234 0
1235 0
1236 0
1237 0
1238 0
1239 0
1240 0
1241 0
1242 0
1243 0
1244 0
1245 0
1246 0
1247 0
1248 0
1249 0
1250 0
1251 0
1252 0
1253 0
1254 0
1255 0
1256 0
1257 0
1258 0
1259 0
1260 0
1261 0
1262 0
1263 0
1264 0
1265 0
1266 0
1267 0
1268 0
1269 0
1270 0
1271 0
1272 0
1273 0
1274 0
1275 0
1276 0
1277 0
1278 0
1279 0
1280 0
1281 0
1282 0
1283 0
1284 0
1285 0
1286 0
1287 0
1303 0
1332 0
1345 0
1346 0
1347 0
1348 0
1349 0
1350 0
1351 0
1352 0
1353 0
1354 0
1355 0
1356 0
1357 0
1358 0
1359 0
1360 0
1361 0
1362 0
1363 0
1364 0
1365 0
1366 0
1367 0
1368 0
1369 0
1370 0
1371 0
1372 0
1373 0
1374 0
1375 0
1376 0
1377 0
1378 0
1379 0
1380 0
1381 0
1382 0
1383 0
1384 0
1385 0
1386 0
1387 0
1388 0
1389 0
-1390 0
1391 0
1392 0
1393 0
1394 0
1395 0
1396 0
1397 0
1398 0
1399 0
1400 0
1401 0
1402 0
1403 0
1404 0
1405 0
1406 0
1407 0
1408 0
1409 0
1410 0
1411 0
1412 0
1431 0
1467 0
1481 0
1482 0
1483 0
1484 0
1485 0
-1486 0
1487 0
1488 0
1489 0
1490 0
1491 0
1492 0
1493 0
1494 0
1495 0
1496 0
1497 0
1498 0
1499 0
1500 0
1501 0
1502 0
1503 0
1504 0
1505 0
1506 0
1507 0
1508 0
1509 0
1510 0
1511 0
1512 0
1513 0
-1514 0
1515 0
1516 0
1517 0
1518 0
1519 0
1520 0
1521 0
1522 0
1523 0
1524 0
1525 0
1526 0
1527 0
1528 0
1529 0
1530 0
1531 0
1532 0
1533 0
1534 0
1535 0
1536 0
1537 0
1538 0
1539 0
1540 0
1541 0
1542 0
1543 0
1544 0
1545 0
1546 0
1547 0
1548 0
1549 0
1550 0
1551 0
1552 0
1553 0
1554 0
1555 0
1556 0
1557 0
1558 0
1559 0
1560 0
1561 0
1562 0
1563 0
1564 0
1565 0
1566 0
1567 0
1568 0
1569 0
1570 0
1571 0
1572 0
1573 0
1574 0
1575 0
1576 0
1577 0
1578 0
1579 0
1580 0
1581 0
1582 0
1583 0
1584 0
1586 0
1587 0
1588 0
1589 0
1590 0
1591 0
1592 0
1593 0
1594 0
1595 0
1596 0
1597 0
1598 0
1599 0
1601 0
1602 0
1603 0
1604 0
1606 0
1607 0
1608 0
1609 0
1610 0
1611 0
1612 0
1613 0
1615 0
1616 0
1617 0
1618 0
1619 0
1620 0
1621 0
1623 0
1624 0
1625 0
1626 0
2508 0
-2509 0
-2510 0
-2511 0
-2512 0
-2513 0
-2514 0
-2515 0
-2516 0
-2517 0
-2518 0
-2519 0
-2520 0
-2521 0
-2522 0
-2523 0
-2524 0
-2525 0
-2526 0
-2527 0
-2528 0
-2529 0
-2530 0
-2531 0
-2532 0
-2533 0
-2534 0
-2535 0
-2536 0
-2537 0
-2538 0
-2539 0
-2540 0
-2541 0
-2542 0
-2543 0
-2544 0
-2545 0
-2546 0
-2547 0
-2548 0
-2549 0
-2550 0
-2551 0
-2552 0
-2553 0
-2554 0
-2555 0
-2556 0
-2557 0
-2558 0
-2559 0
-2560 0
-2561 0
-2562 0
-2563 0
-2564 0
-2565 0
-2566 0
-2567 0
-2568 0
-2569 0
-2570 0
-2571 0
-2572 0
-2573 0
-2574 0
-2575 0
-2576 0
-2577 0
-2578 0
-2579 0
-2580 0
-2581 0
-2582 0
-2583 0
-2584 0
-2585 0
-2586 0
-2587 0
-2588 0
-2589 0
-2590 0
-2591 0
-2592 0
-2593 0
-2594 0
-2595 0
-2600 0
-2601 0
-2602 0
-2603 0
-2604 0
-2605 0
-2607 0
-2608 0
-2609 0
-2610 0
-2611 0
-2612 0
-2613 0
-2614 0
-2615 0
-2616 0
-2617 0
-2618 0
-2619 0
-2620 0
-2621 0
-2623 0
-2624 0
-2625 0
-2626 0
-2627 0
-2628 0
-2629 0
-2630 0
-2631 0
-2632 0
-2633 0
-2634 0
-2635 0
-2636 0
-2637 0
-2638 0
-2639 0
-2640 0
-2641 0
-2642 0
-2643 0
-2644 0
-2645 0
-2646 0
-2647 0
-2648 0
-2649 0
-2650 0
-2651 0
-2652 0
-2653 0
-2654 0
-2655 0
-2656 0
-2657 0
-2658 0
-2659 0
-2660 0
-2661 0
-2662 0
-2663 0
-2664 0
-2665 0
-2666 0
-2667 0
-2668 0
-2669 0
-2670 0
-2671 0
-2672 0
-2673 0
-2674 0
-2675 0
-2676 0
-2677 0
-2678 0
-2679 0
-2680 0
-2681 0
-2682 0
-2683 0
-2684 0
-2685 0
-2686 0
-2687 0
-2688 0
-2689 0
-2690 0
-2691 0
-2692 0
-2693 0
-2694 0
-2695 0
-2696 0
-2697 0
-2698 0
-2699 0
-2700 0
-2701 0
-2702 0
-2703 0
-2704 0
-2705 0
-2706 0
-2707 0
-2708 0
-2709 0
-2710 0
-2711 0
-2712 0
-2713 0
-2714 0
-2715 0
-2716 0
-2717 0
-2718 0
-2719 0
-2720 0
-2721 0
-2722 0
-2723 0
-2724 0
-2725 0
-2726 0
-2727 0
-2728 0
-2729 0
-2730 0
-2731 0
-2732 0
-2733 0
-2734 0
-2735 0
-2736 0
-2737 0
-2738 0
-2739 0
-2740 0
-2741 0
-2742 0
-2743 0
-2744 0
-2745 0
-2746 0
-2747 0
-2748 0
-2749 0
-2750 0
-2751 0
-2752 0
-2753 0
-2754 0
-2755 0
-2756 0
-2757 0
-2758 0
-2759 0
-2760 0
-2761 0
-2762 0
-2763 0
-2764 0
-2765 0
-2766 0
-2767 0
-2768 0
-2769 0
-2770 0
-2771 0
-2772 0
-2773 0
-2774 0
-2775 0
-2776 0
-2777 0
-2778 0
-2779 0
-2780 0
-2781 0
-2782 0
-2783 0
-2784 0
-2785 0
-2786 0
-2787 0
-2788 0
-2789 0
-2790 0
-2791 0
-2792 0
-2793 0
-2794 0
-2795 0
-2796 0
-2797 0
-2798 0
-2799 0
-2800 0
-2801 0
-2802 0
-2803 0
-2804 0
-2805 0
-2806 0
-2807 0
-2808 0
-2809 0
-2810 0
-2811 0
-2812 0
-2813 0
-2814 0
-2815 0
-2816 0
-2817 0
-2818 0
-2819 0
-2820 0
-2821 0
-2822 0
-2823 0
-2824 0
-2825 0
-2826 0
-2827 0
-2828 0
-2829 0
-2830 0
-2831 0
-2832 0
-2833 0
-2834 0
-2835 0
-2836 0
-2837 0
-2838 0
-2839 0
-2840 0
-2841 0
-2842 0
-1855 0
-1856 0
-1857 0
-1858 0
-1859 0
-1860 0
-1861 0
-1862 0
-1863 0
-1864 0
-1865 0
-1866 0
-1867 0
-1868 0
-1869 0
-1870 0
-1871 0
-1872 0
-1873 0
-1874 0
-1875 0
-1876 0
-1877 0
-1878 0
-1879 0
-1880 0
-1881 0
-1882 0
-2130 0
-2131 0
-2132 0
-2133 0
-2134 0
-2135 0
-2136 0
-2137 0
-2138 0
-2139 0
-2140 0
-2141 0
-2142 0
-2143 0
-2144 0
-2145 0
-2146 0
-2147 0
-2148 0
-2149 0
-2150 0
-2151 0
-2152 0
-2153 0
-2154 0
-2155 0
-2156 0
-2157 0
-2158 0
-2159 0
-2160 0
-2161 0
-2162 0
-2163 0
-2164 0
-2165 0
-2166 0
-2167 0
-2168 0
-2169 0
-2170 0
-2171 0
-2172 0
-2173 0
-2174 0
-2175 0
-2176 0
-2177 0
-2178 0
-2179 0
-2180 0
-2181 0
-2182 0
-2183 0
-2184 0
-2185 0
-2186 0
-1722 0
-1723 0
-1724 0
-1725 0
-1726 0
-1727 0
-1728 0
-1729 0
-1730 0
-1731 0
-1732 0
-1733 0
-1734 0
-1735 0
-1736 0
-1737 0
-1738 0
-1739 0
-1740 0
-1741 0
-1742 0
-1743 0
-1744 0
-1745 0
-1746 0
-1747 0
-1748 0
-1749 0
-1750 0
-1751 0
-1752 0
-1753 0
-1754 0
-1755 0
-1756 0
-1757 0
-1758 0
-1759 0
-1760 0
-1761 0
-1762 0
-1763 0
-1764 0
-1765 0
-1766 0
-1767 0
-1768 0
-1769 0
-1770 0
-1771 0
-1772 0
-1773 0
-1774 0
-1775 0
-1776 0
-1777 0
-1778 0
-1779 0
-1780 0
-1781 0
-1782 0
-1783 0
-1784 0
-1785 0
-1786 0
-1787 0
-1788 0
-1789 0
-1932 0
-1933 0
-1934 0
-1935 0
-1936 0
-1937 0
-1938 0
-1939 0
-1940 0
-1941 0
-1942 0
-1943 0
-1944 0
-1790 0
-1945 0
-1946 0
-2026 0
-2027 0
-2000 0
-2001 0
-2002 0
-2003 0
-2004 0
-2005 0
-2006 0
-2007 0
-2008 0
-2009 0
-2010 0
-2011 0
-2012 0
-2013 0
-2014 0
-2015 0
-2016 0
-2017 0
-2018 0
-1947 0
-1948 0
-2019 0
-2020 0
-1949 0
-1950 0
-2021 0
-2022 0
-1883 0
-1884 0
-1885 0
-1886 0
-1887 0
-1888 0
-1889 0
-1890 0
-1891 0
-1892 0
-1893 0
-1894 0
-1791 0
-1895 0
-1896 0
-1951 0
-1897 0
-1952 0
-1898 0
-1899 0
-1953 0
-1900 0
-1954 0
-1901 0
-1902 0
-1903 0
-1904 0
-1905 0
-1666 0
-1667 0
-1668 0
-1669 0
-1670 0
-1671 0
-1955 0
-1672 0
-1673 0
-1674 0
-1675 0
-1676 0
-1956 0
-1677 0
-1678 0
-1957 0
-1679 0
-1680 0
-1958 0
-1681 0
-1959 0
-1682 0
-1683 0
-1684 0
-1685 0
-1686 0
-1687 0
-1688 0
-2300 0
-2301 0
-2302 0
-2303 0
-2304 0
-2305 0
-1960 0
-2306 0
-1792 0
-2307 0
-2308 0
-1961 0
-2309 0
-1962 0
-2310 0
-2311 0
-2312 0
-1963 0
-2313 0
-1964 0
-2314 0
-2315 0
-2316 0
-2317 0
-2318 0
-2319 0
-2320 0
-2321 0
-2322 0
-1906 0
-1907 0
-1908 0
-1909 0
-1910 0
-1911 0
-1912 0
-1913 0
-1914 0
-1965 0
-1915 0
-1966 0
-1916 0
-1917 0
-1918 0
-1967 0
-1968 0
-1919 0
-1920 0
-1921 0
-1922 0
-1923 0
-1924 0
-1925 0
-1926 0
-1927 0
-1928 0
-1969 0
-1929 0
-2023 0
-1930 0
-1931 0
-1689 0
-1690 0
-1691 0
-1692 0
-1970 0
-1693 0
-1971 0
-1694 0
-1695 0
-1972 0
-1973 0
-1696 0
-1697 0
-1698 0
-1699 0
-1700 0
-1701 0
-1702 0
-1703 0
-1974 0
-1704 0
-1975 0
-1705 0
-1706 0
-1707 0
-1976 0
-1708 0
-1709 0
-1710 0
-1711 0
-1712 0
-1713 0
-1714 0
-1715 0
-1716 0
-1717 0
-1718 0
-1719 0
-1720 0
-1721 0
-1977 0
-2469 0
-2470 0
-2471 0
-2472 0
-1978 0
-2473 0
-1979 0
-2474 0
-1980 0
-2475 0
-1981 0
-2476 0
-2477 0
-2478 0
-2479 0
-2480 0
-2481 0
-2482 0
-2483 0
-2484 0
-2485 0
-2486 0
-2487 0
-2488 0
-2489 0
-2490 0
-2491 0
-2492 0
-2493 0
-2494 0
-2495 0
-2496 0
-2497 0
-2498 0
-2499 0
-2500 0
-2501 0
-2502 0
-2503 0
-2504 0
-2024 0
-2505 0
-2506 0
-2507 0
-1793 0
-1794 0
-1795 0
-1796 0
-1797 0
-1798 0
-1799 0
-1800 0
-1801 0
-1802 0
-1803 0
-1804 0
-1805 0
-1806 0
-1807 0
-1808 0
-1809 0
-1810 0
-1811 0
-1812 0
-1813 0
-1814 0
-1815 0
-1816 0
-1817 0
-1818 0
-1819 0
-1820 0
-1821 0
-1822 0
-1823 0
-1824 0
-1825 0
-1826 0
-1827 0
-1828 0
-2025 0
-1829 0
-1830 0
-1831 0
-1832 0
-1833 0
-1834 0
-1835 0
-1836 0
-1837 0
-2255 0
-2256 0
-2257 0
-2258 0
-2259 0
-2260 0
-2261 0
-2262 0
-2263 0
-2264 0
-2265 0
-2266 0
-2267 0
-2268 0
-2269 0
-2270 0
-2271 0
-2272 0
-2273 0
-2274 0
-2275 0
-2276 0
-2277 0
-2278 0
-2279 0
-2280 0
-2281 0
-2282 0
-2283 0
-2284 0
-2285 0
-2286 0
-2287 0
-2288 0
-2289 0
-2290 0
-2291 0
-2292 0
-2293 0
-2294 0
-2295 0
-2296 0
-2297 0
-2298 0
-2299 0
-1838 0
-1839 0
-1840 0
-1841 0
-1842 0
-1843 0
-1844 0
-1845 0
-1846 0
-1847 0
-1848 0
-1849 0
-1850 0
-1851 0
-1852 0
-1853 0
-1854 0

